c WARNING: for repeatability, setting FPU to use double precision
d VARIABLES            20899        
d CONSTRAINTS          80419        
c ============================[ Problem Statistics ]=============================
c |                                                                             |
c |  Number of variables:         20899                                         |
c |  Number of clauses:           80419                                         |
c |  Parse time:                   0.01 s                                       |
c |                                                                             |
c ============================[ Search Statistics ]==============================
c | Conflicts |          ORIGINAL         |          LEARNT          | Progress |
c |           |    Vars  Clauses Literals |    Limit  Clauses Lit/Cl |          |
c ===============================================================================
c |       100 |   14475    61317   150146 |    22482      100     53 | 30.738 % |
c |       250 |   14475    61317   150146 |    24731      250     37 | 30.738 % |
c |       475 |   14475    61317   150146 |    27204      475     49 | 30.738 % |
c |       812 |   14475    61317   150146 |    29924      812     62 | 30.738 % |
c |      1318 |   14475    61317   150146 |    32917     1318     69 | 30.738 % |
c |      2077 |   14475    61317   150146 |    36208     2077     74 | 30.738 % |
c |      3216 |   14475    61317   150146 |    39829     3216     75 | 30.738 % |
c |      4924 |   14475    61317   150146 |    43812     4924     80 | 30.738 % |
c |      7486 |   14475    61317   150146 |    48194     7486     93 | 30.738 % |
c |     11330 |   14475    61317   150146 |    53013    11330     99 | 30.738 % |
c |     17096 |   14475    61317   150146 |    58314    17096     96 | 30.738 % |
c |     25745 |   14475    61317   150146 |    64146    25745     91 | 30.738 % |
c |     38719 |   14475    61317   150146 |    70560    38719     92 | 30.738 % |
c |     58180 |   14475    61317   150146 |    77617    58180     90 | 30.738 % |
c |     87372 |   14475    61317   150146 |    85378    18720     63 | 30.738 % |
c |    131161 |   14475    61317   150146 |    93916    62509     63 | 30.738 % |
c |    196845 |   14475    61317   150146 |   103308    46648     60 | 30.738 % |
c |    295371 |   14475    61317   150146 |   113639    55951     52 | 30.738 % |
c ===============================================================================
c restarts              : 1022
c conflicts             : 436489         (6054 /sec)
c decisions             : 704713         (0.00 % random) (9773 /sec)
c propagations          : 264526794      (3668658 /sec)
c conflict literals     : 26560389       (53.06 % deleted)
d RESTARTS             1022
d FAILURES             436489       
d NODES                704713       
d BACKTRACKS           704713       
d PROPAGATIONS         264526794    
d NOGOODSIZE           60.85 
d MEMORY               73.00 
d TIME                 72.1045 

s UNSATISFIABLE
